Base=4;
C=66;
start_setup=[|0,0,0,0,0,13,0,4,0,0,0,0,0,0,0,16
             |0,0,0,0,0,0,0,0,0,0,0,0,0,0,0,11
             |0,4,0,0,0,0,0,0,0,0,0,0,0,0,0,0
             |0,0,0,0,2,0,7,0,0,0,3,0,0,0,8,0
             |0,0,0,4,0,0,0,0,0,0,0,0,11,5,15,0
             |0,0,0,0,0,0,0,6,0,0,0,0,0,0,0,0
             |0,0,0,0,0,0,9,0,0,0,0,11,0,0,7,0
             |15,0,0,0,0,0,0,0,0,0,0,0,0,0,1,0
             |0,2,0,0,9,0,0,0,13,0,0,0,0,0,0,0
             |0,0,0,0,0,0,0,0,0,2,11,0,0,0,0,7
             |0,0,0,0,0,0,13,0,0,1,4,0,14,0,11,0
             |0,0,0,0,0,0,0,0,5,0,9,0,0,0,0,0
             |4,0,0,0,0,7,0,0,0,0,0,9,16,0,0,0
             |0,0,0,0,0,0,0,0,4,0,2,0,12,11,0,0
             |0,11,10,0,0,3,0,1,0,15,0,0,0,0,0,0
             |0,0,0,0,0,0,0,9,0,7,0,5,4,3,0,0
|];
target_sum=[42,30,4,69,30,15,45,22,42,33,82,59,21,22,51,53,11,40,6,7,53,27,24,29,66,7,41,22,58,13,32,36,21,27,26,3,54,42,10,33,11,10,36,83,13,19,37,84,9,90,8,72,8,102,7,24,15,23,47,73,22,14,40,2,6,13];
tile2cage=[
3,50,50,50,4,4,4,27,27,27,27,9,9,16,16,47
,3,50,50,50,4,4,57,27,62,62,24,49,9,16,16,47
,48,48,48,50,4,19,8,8,8,53,24,49,9,16,16,47
,48,48,50,50,4,21,21,21,46,46,46,45,45,17,59,59
,48,48,48,4,4,21,21,21,43,43,29,29,29,17,59,59
,48,48,11,11,11,21,63,63,43,29,29,29,42,1,1,59
,25,25,11,11,11,51,63,54,43,43,35,35,1,1,26,58
,25,25,25,22,11,11,63,54,13,13,13,65,15,15,5,58
,25,2,2,22,34,34,63,54,54,54,39,39,15,15,5,58
,2,2,55,22,34,34,34,54,54,54,41,38,15,15,5,28
,2,14,55,37,44,44,44,54,54,54,38,38,40,66,5,28
,20,14,37,37,37,44,44,54,44,52,52,38,40,66,12,12
,18,32,37,37,60,44,44,44,44,52,52,52,40,12,12,61
,18,32,37,60,60,60,31,31,31,36,52,52,52,33,12,61
,18,32,56,60,60,60,64,31,7,7,7,30,52,33,12,12
,18,32,56,60,10,10,10,23,23,23,6,6,6,33,12,12];
